coords = array2d(1..50, 1..2, [1000, 82, 127, 528, 519, 489, 285, 329, 483,
    958, 312, 385, 865, 444, 309, 824, 521, 114, 236, 423, 193, 211,
    283, 99, 625, 481, 925, 242, 989, 880, 809, 791, 295, 848, 33, 73,
    418, 77, 959, 672, 250, 418, 75, 820, 781, 370, 300, 532, 239, 71,
    148, 149, 366, 689, 330, 179, 825, 456, 926, 387, 98, 476, 784, 7,
    957, 582, 787, 263, 593, 961, 345, 414, 910, 180, 576, 817, 75,
    492, 98, 5, 819, 237, 139, 647, 878, 198, 649, 764, 260, 112, 156,
    371, 753, 469, 879, 19, 232, 42, 814, 557]);

n = 50;

